NAME: a280
TYPE: MST
DIMENSION: 280
MST_SECTION
171 172
7 8
8 9
8 10
10 11
11 12
12 13
13 14
13 15
16 271
17 18
18 19
18 133
19 20
19 132
20 21
20 131
21 128
21 130
22 25
22 26
23 24
23 25
26 27
27 28
30 31
30 125
31 32
35 36
37 38
38 39
39 40
40 41
41 42
42 43
43 60
44 45
44 57
44 59
45 46
45 56
46 47
46 55
47 48
47 54
48 49
48 53
49 50
49 52
50 51
51 52
52 53
53 54
54 55
55 56
56 57
57 58
58 59
60 61
61 118
62 63
64 65
65 66
65 85
67 70
68 69
70 71
71 72
72 73
73 74
74 75
75 76
75 77
77 78
80 81
81 82
82 83
83 84
84 85
84 87
86 116
87 113
88 112
89 109
90 91
91 92
93 94
93 98
94 95
94 97
95 96
96 97
97 98
100 101
101 102
102 103
103 104
104 105
104 108
105 106
106 107
106 173
108 110
110 111
111 114
113 114
114 115
115 117
117 118
119 120
119 157
120 121
121 122
122 123
123 124
124 125
126 127
127 128
128 129
129 130
130 131
131 132
132 133
134 135
134 270
135 136
135 269
136 137
136 268
137 138
137 267
138 139
138 266
139 140
139 148
140 141
140 266
141 142
141 148
142 143
142 147
143 144
143 146
144 145
144 200
145 146
145 199
146 147
147 148
151 152
151 177
152 156
153 155
153 156
154 155
157 158
158 159
159 160
160 175
161 162
161 175
162 163
163 164
164 165
167 168
170 171
170 172
176 177
176 181
180 181
181 182
182 183
183 184
184 185
185 187
186 187
188 189
189 190
194 195
194 197
195 196
196 197
196 201
197 198
198 199
198 201
199 200
200 201
207 208
207 210
207 212
208 209
208 253
209 210
209 252
210 211
211 212
211 214
212 213
213 214
213 216
214 215
215 216
215 218
216 217
217 218
217 220
218 219
219 220
219 222
220 221
221 222
224 225
225 226
226 227
227 228
228 229
229 230
230 251
231 232
231 238
231 246
232 233
232 237
233 234
233 236
234 235
235 236
236 237
237 238
238 239
239 240
239 246
240 241
240 245
241 244
242 243
244 245
245 246
250 251
252 253
252 255
253 254
254 255
254 257
255 256
256 257
257 258
258 259
259 260
260 261
265 266
266 267
267 268
268 269
269 270
271 272
272 273
273 274
274 275
275 276
62 118
63 64
81 89
83 88
85 86
108 109
111 112
115 116
2 280
35 38
35 39
36 37
36 38
79 80
79 81
89 90
90 109
101 169
EOF